NAME: cuum80.tsp
TYPE: TSP
COMMENT: User-generated TSP file
DIMENSION: 80
EDGE_WEIGHT_TYPE: EUC_2D
NODE_COORD_SECTION
1 13.0 10.0
2 1.0 15.0
3 79.0 11.0
4 78.0 14.0
5 4.0 80.0
6 21.0 26.0
7 50.0 60.0
8 76.0 45.0
9 47.0 56.0
10 58.0 4.0
11 67.0 6.0
12 54.0 9.0
13 53.0 79.0
14 66.0 32.0
15 45.0 77.0
16 62.0 64.0
17 10.0 65.0
18 71.0 2.0
19 13.0 65.0
20 16.0 76.0
21 66.0 5.0
22 67.0 18.0
23 20.0 14.0
24 39.0 78.0
25 1.0 80.0
26 5.0 5.0
27 68.0 41.0
28 80.0 36.0
29 22.0 48.0
30 43.0 59.0
31 23.0 56.0
32 2.0 77.0
33 16.0 73.0
34 64.0 24.0
35 67.0 29.0
36 32.0 17.0
37 50.0 37.0
38 18.0 13.0
39 12.0 4.0
40 30.0 77.0
41 43.0 76.0
42 32.0 31.0
43 64.0 80.0
44 72.0 80.0
45 77.0 7.0
46 31.0 73.0
47 64.0 24.0
48 58.0 62.0
49 60.0 47.0
50 69.0 16.0
51 70.0 11.0
52 61.0 6.0
53 57.0 12.0
54 70.0 67.0
55 62.0 12.0
56 7.0 75.0
57 34.0 15.0
58 10.0 69.0
59 4.0 42.0
60 69.0 45.0
61 33.0 1.0
62 21.0 24.0
63 37.0 67.0
64 18.0 6.0
65 32.0 72.0
66 59.0 13.0
67 45.0 51.0
68 60.0 5.0
69 35.0 63.0
70 5.0 26.0
71 4.0 56.0
72 68.0 20.0
73 45.0 55.0
74 55.0 52.0
75 30.0 45.0
76 44.0 8.0
77 53.0 1.0
78 29.0 58.0
79 53.0 80.0
80 54.0 80.0
EOF





